10J3M/DAT/10J3MNTL-7.dat
10 3
22.8301 22.8301
24.1051 24.1051
31.2864 31.2864
33.6112 33.6112
28.4788 28.4788
31.3261 31.3261
16.676 16.676
26.7635 26.7635
35.6654 35.6654
23.7692 23.7692
68.6279