10J3M/SOL/10J3MNTL-7.sol
solution status: optimal solution found
objective value:                               66.931
x#1#3                                               1 	(obj:0)
x#2#1                                               1 	(obj:0)
x#3#1                                               1 	(obj:0)
x#4#3                                               1 	(obj:0)
x#5#1                               0.528024799851653 	(obj:0)
x#6#2                               0.185327373126479 	(obj:0)
x#6#3                               0.119113857480936 	(obj:0)
x#7#2                                               1 	(obj:0)
x#8#2                                               1 	(obj:0)
x#10#1                                              1 	(obj:0)
z                                              66.931 	(obj:1)
